PROBLEM NAME: 	d198-TTP
KNAPSACK DATA TYPE: bounded strongly corr
DIMENSION:	198
NUMBER OF ITEMS: 	197
CAPACITY OF KNAPSACK: 	89717
MIN SPEED: 	0.1
MAX SPEED: 	1
RENTING RATIO: 	2.39
EDGE_WEIGHT_TYPE:	CEIL_2D
NODE_COORD_SECTION	(INDEX, X, Y): 
1	0.00000e+00	0.00000e+00
2	5.51200e+02	9.96400e+02
3	6.27400e+02	9.96400e+02
4	7.03600e+02	9.96400e+02
5	7.03600e+02	1.04720e+03
6	6.27400e+02	1.04720e+03
7	5.51200e+02	1.04720e+03
8	8.81400e+02	1.35200e+03
9	9.32200e+02	1.35200e+03
10	9.57600e+02	1.35200e+03
11	9.83000e+02	1.35200e+03
12	1.00840e+03	1.35200e+03
13	1.03380e+03	1.35200e+03
14	1.31320e+03	1.12340e+03
15	1.28780e+03	1.09800e+03
16	1.28780e+03	9.96400e+02
17	1.31320e+03	9.96400e+02
18	1.46560e+03	9.96400e+02
19	1.51640e+03	9.96400e+02
20	1.59260e+03	9.96400e+02
21	1.59260e+03	1.09800e+03
22	1.51640e+03	1.09800e+03
23	1.46560e+03	1.09800e+03
24	1.56720e+03	1.12340e+03
25	1.59260e+03	1.14880e+03
26	1.56720e+03	1.17420e+03
27	1.54180e+03	1.17420e+03
28	1.49100e+03	1.17420e+03
29	1.44020e+03	1.17420e+03
30	1.46560e+03	1.19960e+03
31	1.41480e+03	1.22500e+03
32	1.44020e+03	1.22500e+03
33	1.49100e+03	1.22500e+03
34	1.51640e+03	1.22500e+03
35	1.59260e+03	1.25040e+03
36	1.46560e+03	1.25040e+03
37	1.44020e+03	1.25040e+03
38	1.38940e+03	1.25040e+03
39	1.54180e+03	1.27580e+03
40	1.16080e+03	1.12340e+03
41	1.16080e+03	1.22500e+03
42	1.26240e+03	1.30120e+03
43	1.28780e+03	1.30120e+03
44	1.33860e+03	1.30120e+03
45	1.41480e+03	1.30120e+03
46	1.49100e+03	1.30120e+03
47	1.54180e+03	1.30120e+03
48	1.64340e+03	1.30120e+03
49	1.66880e+03	1.32660e+03
50	1.61800e+03	1.32660e+03
51	1.56720e+03	1.32660e+03
52	1.51640e+03	1.32660e+03
53	1.46560e+03	1.32660e+03
54	1.41480e+03	1.32660e+03
55	1.33860e+03	1.32660e+03
56	1.31320e+03	1.32660e+03
57	1.23700e+03	1.32660e+03
58	1.23700e+03	1.35200e+03
59	1.31320e+03	1.35200e+03
60	1.33860e+03	1.35200e+03
61	1.41480e+03	1.35200e+03
62	1.46560e+03	1.35200e+03
63	1.69420e+03	1.35200e+03
64	1.61800e+03	1.37740e+03
65	1.51640e+03	1.37740e+03
66	1.41480e+03	1.37740e+03
67	1.33860e+03	1.37740e+03
68	1.31320e+03	1.37740e+03
69	1.23700e+03	1.37740e+03
70	1.35770e+03	1.39010e+03
71	1.23700e+03	1.40280e+03
72	1.31320e+03	1.40280e+03
73	1.33860e+03	1.40280e+03
74	1.41480e+03	1.40280e+03
75	1.46560e+03	1.40280e+03
76	1.56720e+03	1.40280e+03
77	1.59260e+03	1.40280e+03
78	1.61800e+03	1.40280e+03
79	1.69420e+03	1.42820e+03
80	1.66880e+03	1.42820e+03
81	1.54180e+03	1.42820e+03
82	1.44020e+03	1.42820e+03
83	1.41480e+03	1.42820e+03
84	1.33860e+03	1.42820e+03
85	1.26240e+03	1.42820e+03
86	1.23700e+03	1.45360e+03
87	1.33860e+03	1.45360e+03
88	1.41480e+03	1.45360e+03
89	1.46560e+03	1.45360e+03
90	1.49100e+03	1.45360e+03
91	1.66880e+03	1.45360e+03
92	1.69420e+03	1.45360e+03
93	1.61800e+03	1.47900e+03
94	1.59260e+03	1.47900e+03
95	1.56720e+03	1.47900e+03
96	1.51640e+03	1.47900e+03
97	1.44020e+03	1.47900e+03
98	1.41480e+03	1.47900e+03
99	1.33860e+03	1.47900e+03
100	1.26240e+03	1.47900e+03
101	1.59260e+03	1.50440e+03
102	1.61800e+03	1.50440e+03
103	1.66880e+03	1.52980e+03
104	1.69420e+03	1.52980e+03
105	1.74500e+03	1.52980e+03
106	1.82120e+03	1.52980e+03
107	1.84660e+03	1.52980e+03
108	1.94820e+03	1.52980e+03
109	1.92280e+03	1.55520e+03
110	1.89740e+03	1.55520e+03
111	1.87200e+03	1.55520e+03
112	1.82120e+03	1.55520e+03
113	1.79580e+03	1.55520e+03
114	1.77040e+03	1.55520e+03
115	1.77040e+03	1.65680e+03
116	1.79580e+03	1.65680e+03
117	1.82120e+03	1.65680e+03
118	1.87200e+03	1.65680e+03
119	1.89740e+03	1.65680e+03
120	1.92280e+03	1.65680e+03
121	1.80850e+03	1.69490e+03
122	1.75770e+03	1.69490e+03
123	1.88470e+03	1.73300e+03
124	1.99900e+03	1.73300e+03
125	2.07520e+03	1.73300e+03
126	2.11330e+03	1.73300e+03
127	2.17680e+03	1.73300e+03
128	2.23650e+03	1.73300e+03
129	2.17680e+03	1.78380e+03
130	2.12600e+03	1.78380e+03
131	2.10060e+03	1.78380e+03
132	2.10060e+03	1.80920e+03
133	2.12600e+03	1.80920e+03
134	2.10060e+03	1.83460e+03
135	2.12600e+03	1.83460e+03
136	2.15140e+03	1.83460e+03
137	2.23650e+03	1.84730e+03
138	1.99900e+03	1.84730e+03
139	1.88470e+03	1.84730e+03
140	2.10060e+03	1.86000e+03
141	2.12600e+03	1.86000e+03
142	2.10060e+03	1.88540e+03
143	2.12600e+03	1.88540e+03
144	2.17680e+03	1.88540e+03
145	2.15140e+03	1.91080e+03
146	2.12600e+03	1.91080e+03
147	2.10060e+03	1.91080e+03
148	2.10060e+03	1.93620e+03
149	2.12600e+03	1.93620e+03
150	2.17680e+03	1.93620e+03
151	2.22760e+03	1.93620e+03
152	2.12600e+03	1.96160e+03
153	2.10060e+03	1.96160e+03
154	1.79580e+03	1.98700e+03
155	1.82120e+03	1.98700e+03
156	1.84660e+03	1.98700e+03
157	1.87200e+03	1.98700e+03
158	1.89740e+03	1.98700e+03
159	1.94820e+03	1.98700e+03
160	2.05620e+03	1.98700e+03
161	2.10060e+03	1.98700e+03
162	2.12600e+03	1.98700e+03
163	2.25300e+03	1.98700e+03
164	2.30380e+03	1.98700e+03
165	2.38000e+03	1.98700e+03
166	2.40540e+03	1.98700e+03
167	2.02440e+03	1.40280e+03
168	2.15140e+03	1.40280e+03
169	2.07520e+03	1.70760e+03
170	2.17680e+03	1.70760e+03
171	2.35080e+03	1.73300e+03
172	2.35080e+03	1.84730e+03
173	3.65210e+03	1.01030e+03
174	3.72570e+03	1.01030e+03
175	3.72570e+03	1.08650e+03
176	3.65210e+03	1.08650e+03
177	3.72620e+03	1.14880e+03
178	3.80240e+03	1.14880e+03
179	3.85320e+03	1.14880e+03
180	3.80240e+03	1.17420e+03
181	3.70080e+03	1.17420e+03
182	3.60560e+03	1.19960e+03
183	3.70080e+03	1.19960e+03
184	3.80240e+03	1.19960e+03
185	3.85320e+03	1.19960e+03
186	4.02830e+03	1.31030e+03
187	3.95210e+03	1.31030e+03
188	3.72830e+03	1.31030e+03
189	3.65210e+03	1.31030e+03
190	3.65210e+03	1.38650e+03
191	3.72830e+03	1.38650e+03
192	3.95210e+03	1.38650e+03
193	4.02830e+03	1.38650e+03
194	3.85320e+03	1.12340e+03
195	3.95210e+03	1.08650e+03
196	4.02830e+03	1.08650e+03
197	4.02830e+03	1.01030e+03
198	3.95210e+03	1.01030e+03
ITEMS SECTION	(INDEX, PROFIT, WEIGHT, ASSIGNED NODE NUMBER): 
1	101	1	2
2	202	2	3
3	404	4	4
4	202	2	5
5	996	896	6
6	1992	1792	7
7	3984	3584	8
8	467	367	9
9	934	734	10
10	1868	1468	11
11	790	690	12
12	790	690	13
13	713	613	14
14	1426	1226	15
15	2852	2452	16
16	974	874	17
17	974	874	18
18	222	122	19
19	444	244	20
20	888	488	21
21	666	366	22
22	586	486	23
23	1172	972	24
24	1172	972	25
25	923	823	26
26	923	823	27
27	563	463	28
28	1126	926	29
29	563	463	30
30	689	589	31
31	1378	1178	32
32	1378	1178	33
33	425	325	34
34	850	650	35
35	1700	1300	36
36	1275	975	37
37	1100	1000	38
38	2200	2000	39
39	4400	4000	40
40	876	776	41
41	1752	1552	42
42	2628	2328	43
43	223	123	44
44	456	356	45
45	405	305	46
46	810	610	47
47	1620	1220	48
48	405	305	49
49	147	47	50
50	294	94	51
51	588	188	52
52	745	645	53
53	1490	1290	54
54	2980	2580	55
55	1490	1290	56
56	239	139	57
57	347	247	58
58	694	494	59
59	1388	988	60
60	1041	741	61
61	311	211	62
62	622	422	63
63	1244	844	64
64	933	633	65
65	200	100	66
66	400	200	67
67	800	400	68
68	200	100	69
69	727	627	70
70	1454	1254	71
71	1454	1254	72
72	860	760	73
73	1720	1520	74
74	876	776	75
75	1752	1552	76
76	3504	3104	77
77	575	475	78
78	1150	950	79
79	2300	1900	80
80	1037	937	81
81	2074	1874	82
82	4148	3748	83
83	1037	937	84
84	201	101	85
85	402	202	86
86	804	404	87
87	402	202	88
88	381	281	89
89	762	562	90
90	1524	1124	91
91	762	562	92
92	851	751	93
93	1702	1502	94
94	3404	3004	95
95	1702	1502	96
96	630	530	97
97	1260	1060	98
98	2520	2120	99
99	340	240	100
100	680	480	101
101	680	480	102
102	348	248	103
103	696	496	104
104	1044	744	105
105	868	768	106
106	131	31	107
107	262	62	108
108	131	31	109
109	713	613	110
110	1426	1226	111
111	2852	2452	112
112	713	613	113
113	981	881	114
114	1962	1762	115
115	1962	1762	116
116	467	367	117
117	934	734	118
118	1868	1468	119
119	467	367	120
120	812	712	121
121	510	410	122
122	1020	820	123
123	2040	1640	124
124	510	410	125
125	257	157	126
126	514	314	127
127	1028	628	128
128	771	471	129
129	924	824	130
130	342	242	131
131	572	472	132
132	1144	944	133
133	1716	1416	134
134	822	722	135
135	1644	1444	136
136	3288	2888	137
137	875	775	138
138	875	775	139
139	471	371	140
140	942	742	141
141	1884	1484	142
142	437	337	143
143	874	674	144
144	437	337	145
145	985	885	146
146	1970	1770	147
147	3940	3540	148
148	1970	1770	149
149	304	204	150
150	608	408	151
151	1216	816	152
152	608	408	153
153	694	594	154
154	1388	1188	155
155	2776	2376	156
156	1388	1188	157
157	326	226	158
158	652	452	159
159	1304	904	160
160	326	226	161
161	652	452	162
162	1021	921	163
163	637	537	164
164	1274	1074	165
165	2548	2148	166
166	212	112	167
167	212	112	168
168	1059	959	169
169	2118	1918	170
170	3177	2877	171
171	492	392	172
172	492	392	173
173	809	709	174
174	1618	1418	175
175	3236	2836	176
176	1040	940	177
177	2080	1880	178
178	1043	943	179
179	2086	1886	180
180	4172	3772	181
181	179	79	182
182	179	79	183
183	1022	922	184
184	2044	1844	185
185	2044	1844	186
186	461	361	187
187	1047	947	188
188	2094	1894	189
189	1047	947	190
190	961	861	191
191	1922	1722	192
192	3844	3444	193
193	2883	2583	194
194	1037	937	195
195	2074	1874	196
196	4148	3748	197
197	3111	2811	198
